# 17277
param k := 6;
param n := 60;
param s := 1;
set E :=  (0,6) (1,9) (1,22) (2,41) (3,54) (4,59) (5,31) (5,41) (6,25) (7,19) (7,39) (8,11) (8,36) (8,42) (9,45) (9,47) (10,17) (10,21) (10,23) (11,44) (12,18) (13,49) (13,54) (14,16) (14,58) (15,50) (15,56) (16,18) (17,19) (17,57) (18,22) (18,38) (18,43) (19,28) (20,30) (20,43) (23,56) (24,56) (25,58) (26,32) (26,55) (27,51) (28,33) (29,31) (34,38) (35,46) (35,53) (35,58) (36,59) (37,41) (37,43) (39,44) (40,42) (43,52) (44,48) (44,54) (45,55) (48,53) (51,54);